
  17    4
  10   10   10   10

   0   0   0   0   0   5 2 3 4 5 6 
   1  10  10  10  10   5 13 12 10 8 7 
   7  10  10  10  10   4 13 12 11 9 
   2  10  10  10  10   3 12 9 8 
   4  10  10  10  10   2 12 7 
   8  10  10  10  10   3 13 9 8 
   4  10  10  10  10   3 16 11 9 
   1  10  10  10  10   2 15 11 
  10  10  10  10  10   2 15 14 
   5  10  10  10  10   2 16 15 
   8  10  10  10  10   1 14 
   6  10  10  10  10   1 16 
   7  10  10  10  10   1 14 
   3  10  10  10  10   1 17
   3  10  10  10  10   1 17
   6  10  10  10  10   1 17
   0   0   0   0   0   0 
